     Program PWSCF v.6.1 (svn rev. 13369) starts on 12Sep2018 at 21:59:20

     Current dimensions of program PWSCF are:
     Max number of different atomic species (ntypx) = 10
     Max number of k-points (npk) =  40000
     Max angular momentum in pseudopotentials (lmaxx) =  3

     IMPORTANT: XC functional enforced from input :
     Exchange-correlation      = PBE ( 1  4  3  4 0 0)
     Any further DFT definition will be discarded
     Please, verify this is what you really want

               file Pb.pbe-dn-rrkjus_psl.0.2.2.UPF: wavefunction(s)  6S renormalized

     Subspace diagonalization in iterative solution of the eigenvalue problem:
     a serial algorithm will be used

     Title:
     00_15_1101_75

     bravais-lattice index     =            0
     lattice parameter (alat)  =      16.7226  a.u.
     unit-cell volume          =    6680.8270 (a.u.)^3
     number of atoms/cell      =           48
     number of atomic types    =            5
     number of electrons       =       200.00
     number of Kohn-Sham states=          120
     kinetic-energy cutoff     =      36.0000  Ry
     charge density cutoff     =     504.0000  Ry
     convergence threshold     =      1.0E-08
     mixing beta               =       0.1000
     number of iterations used =            8  local-TF  mixing
     Exchange-correlation      = PBE ( 1  4  3  4 0 0)
     nstep                     =          999

     celldm(1)=  16.722606  celldm(2)=   0.000000  celldm(3)=   0.000000
     celldm(4)=   0.000000  celldm(5)=   0.000000  celldm(6)=   0.000000

     crystal axes: (cart. coord. in units of alat)
               a(1) = (   1.000000   0.000000   0.000000 )
               a(2) = (   0.000000   1.000000   0.000000 )
               a(3) = (   0.000000   0.000000   1.428625 )

     reciprocal axes: (cart. coord. in units 2 pi/alat)
               b(1) = (  1.000000  0.000000  0.000000 )
               b(2) = (  0.000000  1.000000  0.000000 )
               b(3) = (  0.000000  0.000000  0.699974 )

     PseudoPot. # 1 for  H read from file:
     /users/kdm/milmarty/TETRA_NEW_NEW_NEW/pseudo/H.pbe-rrkjus_psl.0.1.UPF
     MD5 check sum: bd57da0722753ddfd9833a65b40bb853
     Pseudo is Ultrasoft, Zval =  1.0
     Generated using "atomic" code by A. Dal Corso  v.5.0.2 svn rev. 9415
     Using radial grid of  929 points,  2 beta functions with:
                l(1) =   0
                l(2) =   0
     Q(r) pseudized with 0 coefficients

     PseudoPot. # 2 for  C read from file:
     /users/kdm/milmarty/TETRA_NEW_NEW_NEW/pseudo/C.pbe-n-rrkjus_psl.0.1.UPF
     MD5 check sum: ab446d787031eba755f1d5ee46644bb0
     Pseudo is Ultrasoft + core correction, Zval =  4.0
     Generated using "atomic" code by A. Dal Corso  v.5.0.2 svn rev. 9415
     Using radial grid of 1073 points,  4 beta functions with:
                l(1) =   0
                l(2) =   0
                l(3) =   1
                l(4) =   1
     Q(r) pseudized with 0 coefficients

     PseudoPot. # 3 for  N read from file:
     /users/kdm/milmarty/TETRA_NEW_NEW_NEW/pseudo/N.pbe-n-rrkjus_psl.0.1.UPF
     MD5 check sum: ed8b6a90f28a53b7d71920e7015d2dd6
     Pseudo is Ultrasoft + core correction, Zval =  5.0
     Generated using "atomic" code by A. Dal Corso  v.5.0.2 svn rev. 9415
     Using radial grid of 1085 points,  4 beta functions with:
                l(1) =   0
                l(2) =   0
                l(3) =   1
                l(4) =   1
     Q(r) pseudized with 0 coefficients

     PseudoPot. # 4 for  I read from file:
     /users/kdm/milmarty/TETRA_NEW_NEW_NEW/pseudo/I.pbe-n-rrkjus_psl.0.2.UPF
     MD5 check sum: f9a5bb98cc7d7d8a1a5c1f9867e5ab3f
     Pseudo is Ultrasoft + core correction, Zval =  7.0
     Generated using "atomic" code by A. Dal Corso  v.5.0.2 svn rev. 9415
     Using radial grid of 1247 points,  4 beta functions with:
                l(1) =   0
                l(2) =   0
                l(3) =   1
                l(4) =   1
     Q(r) pseudized with 0 coefficients

     PseudoPot. # 5 for Pb read from file:
     /users/kdm/milmarty/TETRA_NEW_NEW_NEW/pseudo/Pb.pbe-dn-rrkjus_psl.0.2.2.UPF
     MD5 check sum: 7afc420059c37d6888fc09c0f121e83f
     Pseudo is Ultrasoft + core correction, Zval = 14.0
     Generated using "atomic" code by A. Dal Corso  v.5.0.2 svn rev. 9415
     Using radial grid of 1281 points,  6 beta functions with:
                l(1) =   0
                l(2) =   0
                l(3) =   1
                l(4) =   1
                l(5) =   2
                l(6) =   2
     Q(r) pseudized with 0 coefficients

     atomic species   valence    mass     pseudopotential
        H              1.00     1.00794      H( 1.00)
        C              4.00    12.01070      C( 1.00)
        N              5.00    14.00674      N( 1.00)
        I              7.00   126.90447      I( 1.00)
        Pb            14.00   207.20000     Pb( 1.00)

     No symmetry found

   Cartesian axes

     site n.     atom                  positions (alat units)
         1           Pb  tau(   1) = (   0.0000000   0.0000000   0.0000000  )
         2           Pb  tau(   2) = (   0.5000000   0.5000000   0.0000000  )
         3           Pb  tau(   3) = (   0.0000000   0.0000000   0.7143126  )
         4           Pb  tau(   4) = (   0.5000000   0.5000000   0.7143126  )
         5           I   tau(   5) = (   0.2500001   0.2500001   0.0000000  )
         6           I   tau(   6) = (   0.7500000   0.2500001   0.0000000  )
         7           I   tau(   7) = (   0.7500000   0.7500000   0.0000000  )
         8           I   tau(   8) = (   0.2500001   0.7500000   0.0000000  )
         9           I   tau(   9) = (   0.0000000   0.0000000   0.3571564  )
        10           I   tau(  10) = (   0.5000000   0.5000000   0.3571564  )
        11           I   tau(  11) = (   0.2500001   0.2500001   0.7143126  )
        12           I   tau(  12) = (   0.7500000   0.2500001   0.7143126  )
        13           I   tau(  13) = (   0.7500000   0.7500000   0.7143126  )
        14           I   tau(  14) = (   0.2500001   0.7500000   0.7143126  )
        15           I   tau(  15) = (   0.0000000   0.0000000   1.0714690  )
        16           I   tau(  16) = (   0.5000000   0.5000000   1.0714690  )
        17           C   tau(  17) = (   0.5000000   1.0000001   1.1590476  )
        18           H   tau(  18) = (   0.4406370   1.1010376   1.1968216  )
        19           H   tau(  19) = (   0.4421806   0.8980715   1.1968216  )
        20           H   tau(  20) = (   0.6171825   1.0008912   1.1968216  )
        21           H   tau(  21) = (   0.3905040   0.9991729   0.9425467  )
        22           H   tau(  22) = (   0.5554645   0.9055874   0.9425467  )
        23           H   tau(  23) = (   0.5540316   1.0952401   0.9425467  )
        24           N   tau(  24) = (   0.5000000   1.0000001   0.9838884  )
        25           C   tau(  25) = (   1.0000000   0.5000001   1.1590476  )
        26           H   tau(  26) = (   0.9406370   0.6010376   1.1968216  )
        27           H   tau(  27) = (   0.9421805   0.3980715   1.1968216  )
        28           H   tau(  28) = (   1.1171825   0.5008913   1.1968216  )
        29           H   tau(  29) = (   0.8905040   0.4991729   0.9425467  )
        30           H   tau(  30) = (   1.0554645   0.4055874   0.9425467  )
        31           H   tau(  31) = (   1.0540316   0.5952401   0.9425467  )
        32           N   tau(  32) = (   1.0000000   0.5000001   0.9838884  )
        33           C   tau(  33) = (   0.5000001   0.9999997   0.4447347  )
        34           H   tau(  34) = (   0.5822305   1.0834904   0.4825090  )
        35           H   tau(  35) = (   0.3865798   1.0294680   0.4825090  )
        36           H   tau(  36) = (   0.5311900   0.8870408   0.4825090  )
        37           H   tau(  37) = (   0.4708615   1.1055506   0.2282341  )
        38           H   tau(  38) = (   0.4231597   0.9219893   0.2282341  )
        39           H   tau(  39) = (   0.6059793   0.9724590   0.2282341  )
        40           N   tau(  40) = (   0.5000001   0.9999997   0.2695758  )
        41           C   tau(  41) = (   0.9999999   0.4999998   0.4447347  )
        42           H   tau(  42) = (   0.9406369   0.6010372   0.4825090  )
        43           H   tau(  43) = (   0.9421804   0.3980711   0.4825090  )
        44           H   tau(  44) = (   1.1171825   0.5008909   0.4825090  )
        45           H   tau(  45) = (   0.8905039   0.4991726   0.2282341  )
        46           H   tau(  46) = (   1.0554645   0.4055871   0.2282341  )
        47           H   tau(  47) = (   1.0540315   0.5952398   0.2282341  )
        48           N   tau(  48) = (   0.9999999   0.4999998   0.2695758  )

     number of k points=   112

     Number of k-points >= 100: set verbosity='high' to print them.

     Initial potential from superposition of free atoms

     starting charge  199.98925, renormalised to  200.00000
     Starting wfc are  140 randomized atomic wfcs

     Self-consistent Calculation

     iteration #  1     ecut=    36.00 Ry     beta=0.10
     Davidson diagonalization with overlap
     ethr =  1.00E-02,  avg # of iterations =  3.9

     total energy              =   -1452.96840387 Ry
     Harris-Foulkes estimate   =   -1453.10898295 Ry
     estimated scf accuracy    <       2.74696656 Ry

[...]

     iteration #  6     ecut=    36.00 Ry     beta=0.10
     Davidson diagonalization with overlap
     c_bands:  1 eigenvalues not converged
     c_bands:  1 eigenvalues not converged
     c_bands:  1 eigenvalues not converged
     ethr =  2.21E-05,  avg # of iterations =  7.6

[...]

     End of self-consistent calculation

     Number of k-points >= 100: set verbosity='high' to print the bands.

     highest occupied, lowest unoccupied level (ev):     2.7754    4.0376

!    total energy              =   -1452.32486413 Ry
     Harris-Foulkes estimate   =   -1452.32486363 Ry
     estimated scf accuracy    <          3.3E-09 Ry

     The total energy is the sum of the following terms:

     one-electron contribution =    -441.95838941 Ry
     hartree contribution      =     302.12574919 Ry
     xc contribution           =    -734.97601636 Ry
     ewald contribution        =    -577.51620756 Ry

     convergence has been achieved in  34 iterations

     Forces acting on atoms (cartesian axes, Ry/au):

     atom    1 type  5   force =    -0.00125360    0.00078494   -0.00094451
     atom    2 type  5   force =     0.00202079   -0.00048650   -0.00099994
     atom    3 type  5   force =     0.00021485   -0.00038151   -0.00099582
     atom    4 type  5   force =    -0.00098550    0.00008542   -0.00093090
     atom    5 type  4   force =    -0.00079429    0.00127296    0.00904512
     atom    6 type  4   force =    -0.00066941   -0.00005956    0.00658986
     atom    7 type  4   force =    -0.00068772    0.00133159    0.00749230
     atom    8 type  4   force =    -0.00076124    0.00005123    0.01010461
     atom    9 type  4   force =    -0.00043915   -0.00015546   -0.00107483
     atom   10 type  4   force =     0.00069694   -0.00059421   -0.00110444
[...]
     atom   13 type  4   force =    -0.00208027    0.00029247    0.00869146
     atom   14 type  4   force =    -0.00165646    0.00013732    0.00754604
     atom   15 type  4   force =     0.00112276   -0.00004550   -0.00109250
     atom   16 type  4   force =     0.00097837    0.00001030   -0.00110113
     atom   17 type  2   force =     0.00151753   -0.00002020   -0.04878131
     atom   18 type  1   force =    -0.00238281    0.00357774   -0.00009859
     atom   19 type  1   force =    -0.00231231   -0.00356644   -0.00020356
     atom   20 type  1   force =     0.00376362    0.00007351   -0.00096046
     atom   21 type  1   force =     0.00477650   -0.00004967   -0.00175570
     atom   22 type  1   force =     0.00045686    0.00215273   -0.00422353
     atom   23 type  1   force =     0.00044477   -0.00233380   -0.00405142
     atom   24 type  3   force =    -0.00278478    0.00007503    0.04547910
     atom   25 type  2   force =     0.00144353   -0.00004246   -0.04887493
     atom   26 type  1   force =    -0.00260646    0.00359575    0.00002743
     atom   27 type  1   force =    -0.00255746   -0.00360920    0.00012486
     atom   28 type  1   force =     0.00388146   -0.00003925   -0.00118598
     atom   29 type  1   force =     0.00490436    0.00005451   -0.00147696
     atom   30 type  1   force =     0.00065193    0.00210131   -0.00434225
     atom   31 type  1   force =     0.00072174   -0.00215140   -0.00439036
     atom   32 type  3   force =    -0.00280558    0.00006322    0.04551555
     atom   33 type  2   force =    -0.00112150   -0.00104162   -0.04882645
     atom   34 type  1   force =     0.00316313    0.00319328    0.00026730
     atom   35 type  1   force =    -0.00383020    0.00130501   -0.00072288
     atom   36 type  1   force =     0.00140256   -0.00376797   -0.00068075
     atom   37 type  1   force =    -0.00038197   -0.00398599   -0.00256497
     atom   38 type  1   force =     0.00052214    0.00053713   -0.00494876
     atom   39 type  1   force =    -0.00396036   -0.00046239   -0.00256103
     atom   40 type  3   force =     0.00187938    0.00188003    0.04546498
     atom   41 type  2   force =     0.00153551   -0.00001219   -0.04877550
     atom   42 type  1   force =    -0.00241862    0.00358410   -0.00008809
     atom   43 type  1   force =    -0.00235478   -0.00358106   -0.00017236
     atom   44 type  1   force =     0.00377264    0.00005421   -0.00098406
     atom   45 type  1   force =     0.00470204   -0.00010000   -0.00182805
     atom   46 type  1   force =     0.00034393    0.00215399   -0.00419745
     atom   47 type  1   force =     0.00029879   -0.00241298   -0.00397361
     atom   48 type  3   force =    -0.00268330    0.00011349    0.04545800

     Total force =     0.137638     Total SCF correction =     0.000065

     BFGS Geometry Optimization

     number of scf cycles    =   1
     number of bfgs steps    =   0

     energy   new            =   -1452.3248641305 Ry

     new trust radius        =       0.0488962631 bohr
     new conv_thr            =       0.0000000100 Ry

ATOMIC_POSITIONS (angstrom)
Pb      -0.000663377   0.000415373  -0.000499813
Pb       4.425680354   4.424353555  -0.000529145
Pb       0.000113696  -0.000201887   6.320584037
Pb       4.424089498   4.424656204   6.320618388
I        2.211885682   2.212979623   0.004786470
I        6.636562763   2.212274483   0.003487205
I        6.636553072   6.637621648   0.003964756
I        2.211903167   6.636944110   0.005347129
I       -0.000232390  -0.000082268   3.159987225
I        4.424979805   4.424296557   3.159971556
I        2.211192622   2.212465940   6.325348993
I        6.636078588   2.212367308   6.325925360
I        6.635816170   6.637071768   6.325710321
I        2.211429439   6.636989669   6.325104194
I        0.000594141  -0.000024076   9.481088875
I        4.425128731   4.424616448   9.481084305
C        4.425414043   8.849212309  10.230856041
H        3.898034071   9.745219256  10.590887830
H        3.911730378   7.945346722  10.590832280
H        5.463576622   8.857147900  10.590431745
H        3.458184617   8.841876715   8.339875921
H        4.915670759   8.014883176   8.338570006
H        4.902984360   9.690788008   8.338661079
N        4.423137359   8.849262707   8.730713502
C        8.849985884   4.424589530  10.230806500
H        8.322526720   5.320617787  10.590954515
H        8.336211652   3.520713092  10.591006075
H        9.888249978   4.432477230  10.590312404
H        7.882863276   4.417320844   8.340023425
H        9.340384987   3.590244965   8.338507180
H        9.327741930   5.266273527   8.338481719
N        8.847737353   4.424645453   8.730732792
C        4.424018529   8.848668798   3.909718157
H        5.153961245   9.589736991   4.269970447
H        3.418904094   9.110681361   4.269446471
H        4.701360111   7.847627156   4.269468763
H        4.166555539   9.781153846   2.018336675
H        3.744910605   8.159172578   2.017075228
H        5.360350038   8.605261193   2.018338763
N        4.425606526   8.850214868   2.409595032
C        8.850033557   4.424602551   3.909745117
H        8.322625120   5.320608623   4.269782387
H        8.336317904   3.520724983   4.269737793
H        9.888192394   4.432523687   4.269308260
H        7.882755211   4.417236081   2.018726638
H        9.340222001   3.590269843   2.017472803
H        9.327517113   5.266132108   2.017591255
N        8.847801056   4.424669056   2.409591339

     Writing output data file 00_15_1101_75.save
     NEW-OLD atomic charge density approx. for the potential

[...]

     energy   old            =   -1452.3248641305 Ry
     energy   new            =   -1452.3341458722 Ry

     CASE: energy  _new < energy  _old

[...]

     Threshold (ethr) on eigenvalues was too large:
     Diagonalizing with lowered threshold

     Davidson diagonalization with overlap
     ethr =  7.80E-08,  avg # of iterations =  2.1

[...]

     iteration #  1     ecut=    36.00 Ry     beta=0.10
     Davidson diagonalization with overlap
     c_bands:  1 eigenvalues not converged
     ethr =  1.00E-06,  avg # of iterations =  4.3

[...]

     number of scf cycles    = 190
     number of bfgs steps    = 189

     energy   old            =   -1452.4017027865 Ry
     energy   new            =   -1452.4017469544 Ry

     CASE: energy  _new < energy  _old

     new trust radius        =       0.0234296616 bohr
     new conv_thr            =            1.0E-10 Ry

ATOMIC_POSITIONS (angstrom)
Pb       0.114693515   0.028406580   0.053983577
Pb       4.442562132   4.538135584   0.071797383
Pb      -0.128923619  -0.049583953   6.393286325
Pb       4.395539609   4.293649162   6.400745729
I        2.154888606   2.397514425   0.432269350
I        6.602011615   2.173295958  -0.246716416
I        6.839147590   6.574354535   0.206673725
I        2.501722113   6.918437651   0.907681309
I       -0.513263878   0.408403939   3.288107648
I        4.962908021   3.970546976   3.297660758
I        1.978900656   2.283631926   6.520364835
I        6.344644532   1.917108062   7.261573957
I        6.709831495   6.400662365   6.706259056
I        2.270478656   6.683881292   6.079175072
I        0.511574323  -0.467173241   9.599874821
I        3.900473506   4.888469515   9.619318045
C        4.520735826   8.853070137  10.139979575
H        4.327809851   9.920470814  10.277273405
H        3.988479777   8.271886511  10.899630816
H        5.596028289   8.661373605  10.195738680
H        3.005131699   8.590551964   8.714323185
H        4.197995091   7.429446667   8.639204087
H        4.520110285   8.984229914   8.053671863
N        4.032249299   8.442695583   8.796048952
C        8.678269347   4.112650861   9.900889401
H        8.231137024   4.910526054  10.501748805
H        7.921637319   3.364799071   9.646312074
H        9.499918886   3.644041025  10.451494186
H        8.472275501   5.180788208   8.092943177
H        9.641181181   3.969780765   8.030583472
H        9.958708450   5.397088540   8.838092273
N        9.217507439   4.700843101   8.644544576
C        4.244438281   8.903001776   3.811644792
H        4.666453175   9.576756762   4.562785103
H        3.158284481   9.017316467   3.765023725
H        4.494850618   7.866281733   4.048122615
H        4.633797197  10.238080410   2.246016370
H        4.417277743   8.643657984   1.744401103
H        5.858791196   9.135438079   2.494933703
N        4.822223756   9.247453781   2.486223861
C        9.100217312   4.716530882   3.565926814
H        8.333541741   5.250389810   4.136128014
H        9.507314370   3.896821853   4.166045822
H        9.900763400   5.402482008   3.275955545
H        7.672876277   3.546355345   2.560894127
H        9.168514986   3.587022964   1.786643480
H        8.118409824   4.903316040   1.707774193
N        8.482558496   4.151757910   2.334485029

     Writing output data file 00_15_1101_75.save
     NEW-OLD atomic charge density approx. for the potential

     Self-consistent Calculation

[...]

     Threshold (ethr) on eigenvalues was too large:
     Diagonalizing with lowered threshold

     Davidson diagonalization with overlap
     ethr =  9.43E-08,  avg # of iterations =  1.1

[...]

     total energy              =   -1452.40179068 Ry
     Harris-Foulkes estimate   =   -1452.40179066 Ry
     estimated scf accuracy    <          2.2E-10 Ry

     iteration # 18     ecut=    36.00 Ry     beta=0.10
     Davidson diagonalization with overlap
     ethr =  1.08E-13,  avg # of iterations =  3.7

     End of self-consistent calculation

     Number of k-points >= 100: set verbosity='high' to print the bands.

     highest occupied, lowest unoccupied level (ev):     2.3194    4.0672

!    total energy              =   -1452.40179077 Ry
     Harris-Foulkes estimate   =   -1452.40179068 Ry
     estimated scf accuracy    <          5.7E-11 Ry

     The total energy is the sum of the following terms:

     one-electron contribution =    -443.90575136 Ry
     hartree contribution      =     302.90733195 Ry
     xc contribution           =    -735.04615809 Ry
     ewald contribution        =    -576.35721326 Ry

     convergence has been achieved in  18 iterations

     Forces acting on atoms (cartesian axes, Ry/au):

     atom    1 type  5   force =     0.00000247    0.00015878    0.00080681
     atom    2 type  5   force =    -0.00015426   -0.00030438    0.00031379
     atom    3 type  5   force =    -0.00008980    0.00030479   -0.00027828
     atom    4 type  5   force =     0.00046369    0.00024997   -0.00052159
     atom    5 type  4   force =     0.00055432    0.00073407    0.00005619
     atom    6 type  4   force =    -0.00014740    0.00002188   -0.00047075
     atom    7 type  4   force =     0.00037122   -0.00076324    0.00019153
     atom    8 type  4   force =     0.00033432   -0.00011333    0.00044559
     atom    9 type  4   force =    -0.00008697    0.00040652   -0.00039449
     atom   10 type  4   force =     0.00000548    0.00032053    0.00031362
     atom   11 type  4   force =    -0.00016645   -0.00038291    0.00057433
     atom   12 type  4   force =     0.00000809   -0.00017504   -0.00005451
     atom   13 type  4   force =    -0.00042200    0.00021185   -0.00004484
     atom   14 type  4   force =    -0.00044653   -0.00019121   -0.00058159
     atom   15 type  4   force =     0.00013613    0.00012347    0.00019910
     atom   16 type  4   force =     0.00003664   -0.00068958   -0.00028966
     atom   17 type  2   force =    -0.00012414    0.00044043    0.00001504
     atom   18 type  1   force =     0.00019225   -0.00002551   -0.00049718
     atom   19 type  1   force =     0.00035852   -0.00031386    0.00007222
     atom   20 type  1   force =    -0.00056575    0.00021991    0.00063798
     atom   21 type  1   force =     0.00046380   -0.00005262    0.00019576
     atom   22 type  1   force =    -0.00050139    0.00049531   -0.00011755
     atom   23 type  1   force =    -0.00042205   -0.00035409    0.00032749
     atom   24 type  3   force =     0.00058500    0.00006143    0.00015310
     atom   25 type  2   force =     0.00021230   -0.00002207    0.00018440
     atom   26 type  1   force =    -0.00021130    0.00026156    0.00034237
     atom   27 type  1   force =     0.00025593    0.00057969   -0.00070372
     atom   28 type  1   force =     0.00009564    0.00000105    0.00022634
     atom   29 type  1   force =     0.00008297    0.00022636    0.00004849
     atom   30 type  1   force =     0.00028388    0.00050735    0.00005815
     atom   31 type  1   force =    -0.00048230   -0.00077288   -0.00016495
     atom   32 type  3   force =    -0.00069042   -0.00027652   -0.00011675
     atom   33 type  2   force =    -0.00026795   -0.00042258    0.00012165
     atom   34 type  1   force =     0.00037286    0.00012843    0.00074740
     atom   35 type  1   force =    -0.00032631    0.00033522    0.00000024
     atom   36 type  1   force =     0.00038068   -0.00092870    0.00005477
     atom   37 type  1   force =    -0.00014518    0.00049782   -0.00007361
     atom   38 type  1   force =    -0.00056925   -0.00019197   -0.00027279
     atom   39 type  1   force =     0.00054363   -0.00031928   -0.00011151
     atom   40 type  3   force =     0.00048873    0.00003303   -0.00068704
     atom   41 type  2   force =     0.00021043   -0.00053922    0.00041486
     atom   42 type  1   force =    -0.00035330    0.00025683   -0.00067053
     atom   43 type  1   force =    -0.00014907   -0.00048263    0.00005427
     atom   44 type  1   force =    -0.00000740    0.00021501   -0.00045207
     atom   45 type  1   force =     0.00065329   -0.00009576   -0.00038007
     atom   46 type  1   force =    -0.00052101    0.00074291    0.00022633
     atom   47 type  1   force =    -0.00005484   -0.00073913    0.00024806
     atom   48 type  3   force =    -0.00018720    0.00062231   -0.00014643

     Total force =     0.004543     Total SCF correction =     0.000013

     bfgs converged in 191 scf cycles and 190 bfgs steps
     (criteria: energy <  1.0E-04 Ry, force <  1.0E-03 Ry/Bohr)

     End of BFGS Geometry Optimization

     Final energy   =   -1452.4017907689 Ry
Begin final coordinates

ATOMIC_POSITIONS (angstrom)
Pb       0.114693515   0.028406580   0.053983577
Pb       4.442562132   4.538135584   0.071797383
Pb      -0.128923619  -0.049583953   6.393286325
Pb       4.395539609   4.293649162   6.400745729
I        2.154888606   2.397514425   0.432269350
I        6.602011615   2.173295958  -0.246716416
I        6.839147590   6.574354535   0.206673725
I        2.501722113   6.918437651   0.907681309
I       -0.513263878   0.408403939   3.288107648
I        4.962908021   3.970546976   3.297660758
I        1.978900656   2.283631926   6.520364835
I        6.344644532   1.917108062   7.261573957
I        6.709831495   6.400662365   6.706259056
I        2.270478656   6.683881292   6.079175072
I        0.511574323  -0.467173241   9.599874821
I        3.900473506   4.888469515   9.619318045
C        4.520735826   8.853070137  10.139979575
H        4.327809851   9.920470814  10.277273405
H        3.988479777   8.271886511  10.899630816
H        5.596028289   8.661373605  10.195738680
H        3.005131699   8.590551964   8.714323185
H        4.197995091   7.429446667   8.639204087
H        4.520110285   8.984229914   8.053671863
N        4.032249299   8.442695583   8.796048952
C        8.678269347   4.112650861   9.900889401
H        8.231137024   4.910526054  10.501748805
H        7.921637319   3.364799071   9.646312074
H        9.499918886   3.644041025  10.451494186
H        8.472275501   5.180788208   8.092943177
H        9.641181181   3.969780765   8.030583472
H        9.958708450   5.397088540   8.838092273
N        9.217507439   4.700843101   8.644544576
C        4.244438281   8.903001776   3.811644792
H        4.666453175   9.576756762   4.562785103
H        3.158284481   9.017316467   3.765023725
H        4.494850618   7.866281733   4.048122615
H        4.633797197  10.238080410   2.246016370
H        4.417277743   8.643657984   1.744401103
H        5.858791196   9.135438079   2.494933703
N        4.822223756   9.247453781   2.486223861
C        9.100217312   4.716530882   3.565926814
H        8.333541741   5.250389810   4.136128014
H        9.507314370   3.896821853   4.166045822
H        9.900763400   5.402482008   3.275955545
H        7.672876277   3.546355345   2.560894127
H        9.168514986   3.587022964   1.786643480
H        8.118409824   4.903316040   1.707774193
N        8.482558496   4.151757910   2.334485029
End final coordinates

     Writing output data file 00_15_1101_75.save

     General routines

     Parallel routines

   This run was terminated on:   0:10: 9  26Sep2018

   JOB DONE.